
&control
    calculation     = 'bands'
    prefix          = 'GeTe'
    restart_mode    = 'from_scratch'
    wf_collect      = .false.
    pseudo_dir      = './PP'
    outdir          = './'
    verbosity       = 'high'
    tprnfor         = .true.
    tstress         = .true.
 /
 &system
    ibrav=0,
    nat=2 , ntyp= 2, 
    celldm(1)=8.183
    ecutwfc = 100, nbnd=50
    occupations='tetrahedra'
    noncolin=.true.,
    lspinorb=.true.
 /
 &electrons
    diagonalization = 'david'
    mixing_beta     = 0.3
    conv_thr        = 1.0d-8
 /
ATOMIC_SPECIES   
Ge  72.630  Ge.rel-pbe-n-nc.UPF
Te  127.60  Te.rel-pbe-n-nc.UPF
CELL_PARAMETERS (alat=8.18300000)
    0.489778930  -0.282773996   0.842451135
   0.000000000   0.565547993   0.842451135
  -0.489778930  -0.282773996   0.842451135

ATOMIC_POSITIONS (crystal)
Ge       0.234806965   0.234806965   0.234806965
Te       0.765193035   0.765193035   0.765193035

K_POINTS crystal_b
10
0.242 0.758 0.5  200 # W
0.5  0.5    0.5  200 # T
0.0 0.0 0.0 200 ! G
0.0 0.629 0.371 200 ! K
0.0  0.5  0.5  200 # X
0.0 0.0 0.0 200 ! G
0.0 0.5 0.0 200 ! L
0.371 0.758 0.371 200 ! U
0.2118 0.3714 0.1918 200 ! PI
0.0 0.0 0.0 1 ! G

