&BANDS
    prefix  = 'GeTe'
    outdir = './'
    filband = 'GeTe_bands.dat'
/
