
&control
    calculation='vc-relax'
    restart_mode='from_scratch',
    prefix='GeTe'
    pseudo_dir='./PP'
    verbosity='high'
    tprnfor=.true.
    nstep=500
    tstress=.true.
    etot_conv_thr=1.0e-05
    forc_conv_thr=1.0e-04
    dt=40
    outdir='./tmp'	
/
&system
    ibrav=0,celldm(1)=8.183
    nat= 2, ntyp= 2,
    ecutwfc = 100,nbnd=24
    occupations = 'fixed' ,
    noncolin=.false.,
    lspinorb=.false.
/
&electrons
    diagonalization='david'
    conv_thr = 1.0e-10
    mixing_beta = 0.5
    electron_maxstep = 500
    mixing_mode = 'plain'
/
&IONS
  ion_dynamics = 'bfgs'
/
&CELL
  cell_dynamics = 'bfgs'
  press_conv_thr=0.1
/
ATOMIC_SPECIES
Ge  72.630  Ge.rel-pbe-n-nc.UPF
Te  127.60  Te.rel-pbe-n-nc.UPF
CELL_PARAMETERS (alat=  8.18300000)
   0.489850122  -0.282815099   0.842668840
   0.000000000   0.565630198   0.842668840
  -0.489850122  -0.282815099   0.842668840

ATOMIC_POSITIONS (crystal)
Ge       0.234772997   0.234772997   0.234772997
Te       0.765227003   0.765227003   0.765227003
K_POINTS (automatic) 
12 12 12  0 0 0

